c random clauses
p cnf 16 16
-16 -13 -7 -4 -1 5 6 11 0
-16 -9 -4 -1 2 5 12 14 0
-16 -8 -3 -1 5 11 12 13 0
-16 -8 -2 1 5 7 12 14 0
-15 -14 -11 -9 -8 1 2 13 0
-15 -14 -10 -4 -2 1 9 13 0
-15 -13 -6 -4 1 10 11 14 0
-15 -12 -10 -8 -1 2 4 16 0
-15 -12 -8 -6 -1 2 5 7 0
-14 -13 -8 -2 1 7 10 11 0
-14 -12 -11 -5 1 7 8 13 0
-14 -8 -5 2 4 6 7 15 0
-12 -8 -6 -5 -4 7 14 15 0
-12 -7 -6 -4 3 8 13 14 0
-6 -5 -3 2 7 9 11 15 0
-4 -1 5 7 8 9 10 16 0
